NAME : traveling-santa-2018-prime-paths.27959.tour
COMMENT : Length = 27959
COMMENT : Found by LKH [Keld Helsgaun] Sun Jun 12 20:00:03 2022
TYPE : TOUR
DIMENSION : 100
TOUR_SECTION
1
37
62
68
77
70
97
91
95
13
48
34
20
74
50
45
24
73
28
58
44
76
3
49
55
83
93
92
60
41
59
94
99
57
25
89
14
10
23
30
86
42
32
100
53
18
98
6
8
38
96
65
69
22
72
11
47
67
85
46
31
64
21
27
84
43
82
5
17
19
88
36
9
29
80
63
52
2
26
7
35
75
33
51
12
15
71
66
39
81
16
61
87
90
78
56
79
4
54
40
-1
EOF
